PARAMETER_FILE = even/LKH_uncomplete_graph/x5/seg/par/random196.par
PROBLEM_FILE = even/LKH_uncomplete_graph/x5/seg/mat/random196.tsp
Successes/Runs = 0/10
Cost.min = 1039, Cost.avg = 1039.00, Cost.max = 1039
Gap.min = 0.0000%, Gap.avg = 0.0000%, Gap.max = 0.0000%
Trials.min = 1000, Trials.avg = 1000.0, Trials.max = 1000
Time.min = 1.27 sec., Time.avg = 1.47 sec., Time.max = 1.89 sec.
Time.total = 14.84 sec.
请按任意键继续. . . 
